experiment/data/lkh-res/Vrp-Set-X-n204/Vrp-Set-X-n204-lkh/0.lkh1.vrp
NAME : 0
COMMENT : CVRP Instance
TYPE : CVRP
DIMENSION : 204
EDGE_WEIGHT_TYPE : EUC_2D
CAPACITY : 836
NODE_COORD_SECTION
1	50000	50000
2	22100	54200
3	32000	45600
4	57600	82700
5	67900	99400
6	37100	46100
7	96100	84400
8	98600	37900
9	17500	54000
10	12600	51700
11	32900	62600
12	47700	89000
13	19100	35600
14	58400	91700
15	30800	65300
16	0	700
17	27300	30200
18	67200	38100
19	23500	41500
20	58300	14900
21	67200	12400
22	64400	64600
23	40000	54400
24	83200	99900
25	84200	96400
26	58200	96500
27	54400	31100
28	42900	200
29	93900	84900
30	89800	60500
31	36300	13000
32	63900	87400
33	32300	20100
34	82900	35000
35	700	5300
36	80100	9200
37	5700	33000
38	94300	0
39	57900	27500
40	83300	40200
41	40800	94000
42	63500	87100
43	63100	63000
44	73300	31300
45	34400	61900
46	62800	29100
47	67400	9200
48	7400	60200
49	3800	35400
50	47300	10700
51	66800	27900
52	51000	81100
53	36600	1600
54	4900	18200
55	52800	94600
56	27100	74500
57	40500	87200
58	6500	89300
59	62200	48800
60	66800	97800
61	93900	7300
62	55600	63200
63	27000	44600
64	58600	34800
65	95100	16700
66	38500	30800
67	24700	99700
68	99200	46000
69	12800	59000
70	74600	84700
71	27900	45900
72	42800	18300
73	36400	16700
74	65600	68700
75	54700	79200
76	51700	15200
77	25200	61800
78	46400	28400
79	18400	9600
80	45700	26900
81	59000	4700
82	34800	60900
83	77700	11200
84	52800	19800
85	87700	45700
86	81200	65000
87	86400	72300
88	58400	87500
89	81700	23300
90	18600	90900
91	43900	44700
92	56000	99400
93	81800	65800
94	13400	90300
95	44700	95100
96	96900	51900
97	48800	40100
98	14200	66600
99	28700	53400
100	39900	18100
101	14100	2200
102	2900	24800
103	31300	64300
104	2000	97400
105	29400	47500
106	43900	21400
107	32700	36100
108	7900	65700
109	11000	65300
110	33200	44000
111	24200	94300
112	9600	49200
113	6200	54100
114	47800	19900
115	26700	48600
116	18400	68600
117	11900	37000
118	34200	58700
119	31600	55200
120	9000	37000
121	41700	22500
122	11100	57500
123	45800	22100
124	32100	33700
125	28700	45400
126	36400	56000
127	12100	60900
128	21500	48800
129	35100	23200
130	8400	58500
131	1400	71800
132	34400	33700
133	23300	47200
134	21600	49700
135	13300	58400
136	18800	32700
137	17500	35200
138	28100	70200
139	24700	64500
140	21500	83700
141	42400	67700
142	43800	66600
143	45400	54700
144	35400	24200
145	9600	38700
146	46200	53200
147	2500	98000
148	34300	65800
149	12700	36800
150	10000	61300
151	24500	36300
152	35600	48800
153	25900	41000
154	48000	27000
155	19600	49200
156	30300	33600
157	24300	88800
158	45300	22600
159	3200	99300
160	28700	52800
161	49200	23800
162	5400	69800
163	44200	19500
164	1700	93000
165	28500	27700
166	7500	93200
167	16700	56000
168	36800	36000
169	15500	71000
170	32800	27700
171	35500	39900
172	5300	64100
173	23600	52200
174	42100	34600
175	30800	11800
176	8200	73900
177	34500	46700
178	40800	36300
179	10100	65800
180	41900	18800
181	3600	95200
182	25000	33700
183	23200	38800
184	49800	30800
185	1800	94500
186	36200	70200
187	42900	25600
188	10500	50700
189	24500	52100
190	57600	28000
191	26900	48500
192	25700	64700
193	10600	61800
194	26900	50500
195	42300	47000
196	20600	46700
197	12600	66900
198	22800	79500
199	24100	30500
200	13700	43300
201	21000	39200
202	37100	62700
203	21900	34400
204	9600	42700
DEMAND_SECTION
1	0
2	61
3	96
4	52
5	58
6	81
7	76
8	51
9	98
10	65
11	84
12	63
13	79
14	89
15	70
16	93
17	84
18	100
19	70
20	52
21	86
22	69
23	50
24	59
25	79
26	53
27	66
28	65
29	70
30	74
31	86
32	77
33	83
34	50
35	76
36	62
37	73
38	54
39	100
40	99
41	59
42	73
43	74
44	97
45	63
46	83
47	97
48	81
49	61
50	91
51	78
52	87
53	56
54	81
55	91
56	62
57	53
58	82
59	77
60	94
61	99
62	92
63	76
64	83
65	89
66	61
67	53
68	94
69	84
70	55
71	54
72	61
73	86
74	53
75	60
76	55
77	82
78	86
79	60
80	71
81	98
82	67
83	93
84	63
85	64
86	96
87	85
88	64
89	95
90	71
91	69
92	94
93	79
94	68
95	50
96	97
97	83
98	72
99	99
100	88
101	72
102	84
103	88
104	54
105	83
106	83
107	62
108	80
109	68
110	99
111	57
112	75
113	51
114	54
115	85
116	71
117	92
118	64
119	80
120	78
121	61
122	98
123	61
124	52
125	92
126	55
127	55
128	83
129	73
130	56
131	80
132	82
133	71
134	93
135	93
136	92
137	58
138	88
139	50
140	58
141	54
142	73
143	82
144	59
145	80
146	81
147	74
148	99
149	70
150	89
151	69
152	68
153	61
154	88
155	75
156	60
157	72
158	54
159	86
160	55
161	66
162	94
163	69
164	65
165	63
166	84
167	66
168	89
169	71
170	95
171	95
172	80
173	74
174	61
175	79
176	87
177	90
178	72
179	81
180	86
181	85
182	71
183	100
184	99
185	51
186	68
187	80
188	55
189	52
190	68
191	87
192	79
193	71
194	58
195	87
196	78
197	83
198	57
199	52
200	57
201	78
202	80
203	66
204	84
DEPOT_SECTION
1
-1
EOF
