experiment/data/lkh-res/Vrp-Set-X-n204/Vrp-Set-X-n204-lkh/0.lkh1.log
PARAMETER_FILE = baseline_results/cvrp_lkh/Vrp-Set-X-n204/Vrp-Set-X-n204-lkh/0.lkh1.par
Reading PROBLEM_FILE: "baseline_results/cvrp_lkh/Vrp-Set-X-n204/Vrp-Set-X-n204-lkh/0.lkh1.vrp" ... done
ASCENT_CANDIDATES = 50
BACKBONE_TRIALS = 0
BACKTRACKING = NO
# BWTSP =
# CANDIDATE_FILE =
CANDIDATE_SET_TYPE = ALPHA
# DISTANCE =
DEPOT = 1
# EDGE_FILE =
EXCESS = 0.00490196
EXTERNAL_SALESMEN = 0
EXTRA_CANDIDATES = 0 
EXTRA_CANDIDATE_SET_TYPE = QUADRANT
GAIN23 = NO
GAIN_CRITERION = YES
INITIAL_PERIOD = 102
INITIAL_STEP_SIZE = 1
INITIAL_TOUR_ALGORITHM = WALK
# INITIAL_TOUR_FILE = 
INITIAL_TOUR_FRACTION = 1.000
# INPUT_TOUR_FILE = 
KICK_TYPE = 4
KICKS = 1
# MAX_BREADTH =
MAKESPAN = NO
MAX_CANDIDATES = 5 
MAX_SWAPS = 0
MAX_TRIALS = 10000
# MERGE_TOUR_FILE =
MOVE_TYPE = 5 SPECIAL
MTSP_MIN_SIZE = 1
MTSP_MAX_SIZE = 203
# MTSP_SOLUTION_FILE = 
# NONSEQUENTIAL_MOVE_TYPE = 5
# OPTIMUM =
OUTPUT_TOUR_FILE = baseline_results/cvrp_lkh/Vrp-Set-X-n204/Vrp-Set-X-n204-lkh/0.lkh1.tour
PATCHING_A = 1 
PATCHING_C = 0 
# PI_FILE = 
POPMUSIC_INITIAL_TOUR = NO
POPMUSIC_MAX_NEIGHBORS = 5
POPMUSIC_SAMPLE_SIZE = 10
POPMUSIC_SOLUTIONS = 50
POPMUSIC_TRIALS = 1
POPULATION_SIZE = 10
PRECISION = 100
PROBLEM_FILE = baseline_results/cvrp_lkh/Vrp-Set-X-n204/Vrp-Set-X-n204-lkh/0.lkh1.vrp
RECOMBINATION = IPT
RESTRICTED_SEARCH = YES
RUNS = 1
SALESMEN = 19
SCALE = 1
SEED = 1234
# SINTEF_SOLUTION_FILE = 
STOP_AT_OPTIMUM = YES
SUBGRADIENT = YES
# SUBPROBLEM_SIZE =
# SUBPROBLEM_TOUR_FILE = 
SUBSEQUENT_MOVE_TYPE = 5 SPECIAL
SUBSEQUENT_PATCHING = YES
# TIME_LIMIT =
# TOTAL_TIME_LIMIT =
# TOUR_FILE = 
TRACE_LEVEL = 1
VEHICLES = 19

Lower bound = 1417067.4, Ascent time = 0.07 sec.
Cand.min = 4, Cand.avg = 5.0, Cand.max = 5
Preprocessing time = 0.07 sec.
* 1: Cost = 0_2178286, Time = 0.05 sec. 
Writing OUTPUT_TOUR_FILE: "baseline_results/cvrp_lkh/Vrp-Set-X-n204/Vrp-Set-X-n204-lkh/0.lkh1.tour" ... done
* 2: Cost = 0_2151213, Time = 0.05 sec. 
Writing OUTPUT_TOUR_FILE: "baseline_results/cvrp_lkh/Vrp-Set-X-n204/Vrp-Set-X-n204-lkh/0.lkh1.tour" ... done
* 3: Cost = 0_2131323, Time = 0.06 sec. 
Writing OUTPUT_TOUR_FILE: "baseline_results/cvrp_lkh/Vrp-Set-X-n204/Vrp-Set-X-n204-lkh/0.lkh1.tour" ... done
* 4: Cost = 0_2130504, Time = 0.06 sec. 
Writing OUTPUT_TOUR_FILE: "baseline_results/cvrp_lkh/Vrp-Set-X-n204/Vrp-Set-X-n204-lkh/0.lkh1.tour" ... done
* 5: Cost = 0_2127813, Time = 0.07 sec. 
Writing OUTPUT_TOUR_FILE: "baseline_results/cvrp_lkh/Vrp-Set-X-n204/Vrp-Set-X-n204-lkh/0.lkh1.tour" ... done
* 8: Cost = 0_2114803, Time = 0.08 sec. 
Writing OUTPUT_TOUR_FILE: "baseline_results/cvrp_lkh/Vrp-Set-X-n204/Vrp-Set-X-n204-lkh/0.lkh1.tour" ... done
* 12: Cost = 0_2107946, Time = 0.11 sec. 
Writing OUTPUT_TOUR_FILE: "baseline_results/cvrp_lkh/Vrp-Set-X-n204/Vrp-Set-X-n204-lkh/0.lkh1.tour" ... done
* 13: Cost = 0_2106497, Time = 0.11 sec. 
Writing OUTPUT_TOUR_FILE: "baseline_results/cvrp_lkh/Vrp-Set-X-n204/Vrp-Set-X-n204-lkh/0.lkh1.tour" ... done
* 15: Cost = 0_2095353, Time = 0.12 sec. 
Writing OUTPUT_TOUR_FILE: "baseline_results/cvrp_lkh/Vrp-Set-X-n204/Vrp-Set-X-n204-lkh/0.lkh1.tour" ... done
* 22: Cost = 0_2092508, Time = 0.13 sec. 
Writing OUTPUT_TOUR_FILE: "baseline_results/cvrp_lkh/Vrp-Set-X-n204/Vrp-Set-X-n204-lkh/0.lkh1.tour" ... done
* 24: Cost = 0_2070740, Time = 0.15 sec. 
Writing OUTPUT_TOUR_FILE: "baseline_results/cvrp_lkh/Vrp-Set-X-n204/Vrp-Set-X-n204-lkh/0.lkh1.tour" ... done
* 25: Cost = 0_2068734, Time = 0.17 sec. 
Writing OUTPUT_TOUR_FILE: "baseline_results/cvrp_lkh/Vrp-Set-X-n204/Vrp-Set-X-n204-lkh/0.lkh1.tour" ... done
* 32: Cost = 0_2068651, Time = 0.22 sec. 
Writing OUTPUT_TOUR_FILE: "baseline_results/cvrp_lkh/Vrp-Set-X-n204/Vrp-Set-X-n204-lkh/0.lkh1.tour" ... done
* 33: Cost = 0_2067809, Time = 0.22 sec. 
Writing OUTPUT_TOUR_FILE: "baseline_results/cvrp_lkh/Vrp-Set-X-n204/Vrp-Set-X-n204-lkh/0.lkh1.tour" ... done
* 41: Cost = 0_2066026, Time = 0.25 sec. 
Writing OUTPUT_TOUR_FILE: "baseline_results/cvrp_lkh/Vrp-Set-X-n204/Vrp-Set-X-n204-lkh/0.lkh1.tour" ... done
* 42: Cost = 0_2064889, Time = 0.25 sec. 
Writing OUTPUT_TOUR_FILE: "baseline_results/cvrp_lkh/Vrp-Set-X-n204/Vrp-Set-X-n204-lkh/0.lkh1.tour" ... done
* 44: Cost = 0_2043853, Time = 0.26 sec. 
Writing OUTPUT_TOUR_FILE: "baseline_results/cvrp_lkh/Vrp-Set-X-n204/Vrp-Set-X-n204-lkh/0.lkh1.tour" ... done
* 48: Cost = 0_2043782, Time = 0.27 sec. 
Writing OUTPUT_TOUR_FILE: "baseline_results/cvrp_lkh/Vrp-Set-X-n204/Vrp-Set-X-n204-lkh/0.lkh1.tour" ... done
* 50: Cost = 0_2043765, Time = 0.27 sec. 
Writing OUTPUT_TOUR_FILE: "baseline_results/cvrp_lkh/Vrp-Set-X-n204/Vrp-Set-X-n204-lkh/0.lkh1.tour" ... done
* 51: Cost = 0_2040939, Time = 0.27 sec. 
Writing OUTPUT_TOUR_FILE: "baseline_results/cvrp_lkh/Vrp-Set-X-n204/Vrp-Set-X-n204-lkh/0.lkh1.tour" ... done
* 59: Cost = 0_2040092, Time = 0.30 sec. 
Writing OUTPUT_TOUR_FILE: "baseline_results/cvrp_lkh/Vrp-Set-X-n204/Vrp-Set-X-n204-lkh/0.lkh1.tour" ... done
* 62: Cost = 0_2037614, Time = 0.31 sec. 
Writing OUTPUT_TOUR_FILE: "baseline_results/cvrp_lkh/Vrp-Set-X-n204/Vrp-Set-X-n204-lkh/0.lkh1.tour" ... done
* 71: Cost = 0_2037543, Time = 0.32 sec. 
Writing OUTPUT_TOUR_FILE: "baseline_results/cvrp_lkh/Vrp-Set-X-n204/Vrp-Set-X-n204-lkh/0.lkh1.tour" ... done
* 76: Cost = 0_2037393, Time = 0.34 sec. 
Writing OUTPUT_TOUR_FILE: "baseline_results/cvrp_lkh/Vrp-Set-X-n204/Vrp-Set-X-n204-lkh/0.lkh1.tour" ... done
* 148: Cost = 0_2035666, Time = 0.61 sec. 
Writing OUTPUT_TOUR_FILE: "baseline_results/cvrp_lkh/Vrp-Set-X-n204/Vrp-Set-X-n204-lkh/0.lkh1.tour" ... done
* 157: Cost = 0_2034206, Time = 0.66 sec. 
Writing OUTPUT_TOUR_FILE: "baseline_results/cvrp_lkh/Vrp-Set-X-n204/Vrp-Set-X-n204-lkh/0.lkh1.tour" ... done
* 159: Cost = 0_2033741, Time = 0.67 sec. 
Writing OUTPUT_TOUR_FILE: "baseline_results/cvrp_lkh/Vrp-Set-X-n204/Vrp-Set-X-n204-lkh/0.lkh1.tour" ... done
* 191: Cost = 0_2032344, Time = 0.80 sec. 
Writing OUTPUT_TOUR_FILE: "baseline_results/cvrp_lkh/Vrp-Set-X-n204/Vrp-Set-X-n204-lkh/0.lkh1.tour" ... done
* 199: Cost = 0_2030442, Time = 0.84 sec. 
Writing OUTPUT_TOUR_FILE: "baseline_results/cvrp_lkh/Vrp-Set-X-n204/Vrp-Set-X-n204-lkh/0.lkh1.tour" ... done
* 214: Cost = 0_2029023, Time = 0.92 sec. 
Writing OUTPUT_TOUR_FILE: "baseline_results/cvrp_lkh/Vrp-Set-X-n204/Vrp-Set-X-n204-lkh/0.lkh1.tour" ... done
* 221: Cost = 0_2027083, Time = 0.95 sec. 
Writing OUTPUT_TOUR_FILE: "baseline_results/cvrp_lkh/Vrp-Set-X-n204/Vrp-Set-X-n204-lkh/0.lkh1.tour" ... done
* 234: Cost = 0_2019222, Time = 1.01 sec. 
Writing OUTPUT_TOUR_FILE: "baseline_results/cvrp_lkh/Vrp-Set-X-n204/Vrp-Set-X-n204-lkh/0.lkh1.tour" ... done
* 240: Cost = 0_2018243, Time = 1.05 sec. 
Writing OUTPUT_TOUR_FILE: "baseline_results/cvrp_lkh/Vrp-Set-X-n204/Vrp-Set-X-n204-lkh/0.lkh1.tour" ... done
* 248: Cost = 0_2015693, Time = 1.08 sec. 
Writing OUTPUT_TOUR_FILE: "baseline_results/cvrp_lkh/Vrp-Set-X-n204/Vrp-Set-X-n204-lkh/0.lkh1.tour" ... done
* 258: Cost = 0_2015322, Time = 1.13 sec. 
Writing OUTPUT_TOUR_FILE: "baseline_results/cvrp_lkh/Vrp-Set-X-n204/Vrp-Set-X-n204-lkh/0.lkh1.tour" ... done
* 318: Cost = 0_2015009, Time = 1.48 sec. 
Writing OUTPUT_TOUR_FILE: "baseline_results/cvrp_lkh/Vrp-Set-X-n204/Vrp-Set-X-n204-lkh/0.lkh1.tour" ... done
* 407: Cost = 0_2014486, Time = 1.89 sec. 
Writing OUTPUT_TOUR_FILE: "baseline_results/cvrp_lkh/Vrp-Set-X-n204/Vrp-Set-X-n204-lkh/0.lkh1.tour" ... done
* 595: Cost = 0_2014104, Time = 2.81 sec. 
Writing OUTPUT_TOUR_FILE: "baseline_results/cvrp_lkh/Vrp-Set-X-n204/Vrp-Set-X-n204-lkh/0.lkh1.tour" ... done
* 661: Cost = 0_2014007, Time = 3.20 sec. 
Writing OUTPUT_TOUR_FILE: "baseline_results/cvrp_lkh/Vrp-Set-X-n204/Vrp-Set-X-n204-lkh/0.lkh1.tour" ... done
* 766: Cost = 0_2012626, Time = 3.80 sec. 
Writing OUTPUT_TOUR_FILE: "baseline_results/cvrp_lkh/Vrp-Set-X-n204/Vrp-Set-X-n204-lkh/0.lkh1.tour" ... done
* 795: Cost = 0_2012225, Time = 3.92 sec. 
Writing OUTPUT_TOUR_FILE: "baseline_results/cvrp_lkh/Vrp-Set-X-n204/Vrp-Set-X-n204-lkh/0.lkh1.tour" ... done
* 901: Cost = 0_2012027, Time = 4.48 sec. 
Writing OUTPUT_TOUR_FILE: "baseline_results/cvrp_lkh/Vrp-Set-X-n204/Vrp-Set-X-n204-lkh/0.lkh1.tour" ... done
* 1102: Cost = 0_2010941, Time = 5.60 sec. 
Writing OUTPUT_TOUR_FILE: "baseline_results/cvrp_lkh/Vrp-Set-X-n204/Vrp-Set-X-n204-lkh/0.lkh1.tour" ... done
* 1266: Cost = 0_2010517, Time = 6.53 sec. 
Writing OUTPUT_TOUR_FILE: "baseline_results/cvrp_lkh/Vrp-Set-X-n204/Vrp-Set-X-n204-lkh/0.lkh1.tour" ... done
* 1285: Cost = 0_2007556, Time = 6.59 sec. 
Writing OUTPUT_TOUR_FILE: "baseline_results/cvrp_lkh/Vrp-Set-X-n204/Vrp-Set-X-n204-lkh/0.lkh1.tour" ... done
* 1329: Cost = 0_2005721, Time = 6.88 sec. 
Writing OUTPUT_TOUR_FILE: "baseline_results/cvrp_lkh/Vrp-Set-X-n204/Vrp-Set-X-n204-lkh/0.lkh1.tour" ... done
* 1367: Cost = 0_2004758, Time = 7.12 sec. 
Writing OUTPUT_TOUR_FILE: "baseline_results/cvrp_lkh/Vrp-Set-X-n204/Vrp-Set-X-n204-lkh/0.lkh1.tour" ... done
* 1379: Cost = 0_2004235, Time = 7.21 sec. 
Writing OUTPUT_TOUR_FILE: "baseline_results/cvrp_lkh/Vrp-Set-X-n204/Vrp-Set-X-n204-lkh/0.lkh1.tour" ... done
* 1383: Cost = 0_2003401, Time = 7.22 sec. 
Writing OUTPUT_TOUR_FILE: "baseline_results/cvrp_lkh/Vrp-Set-X-n204/Vrp-Set-X-n204-lkh/0.lkh1.tour" ... done
* 1388: Cost = 0_2002704, Time = 7.24 sec. 
Writing OUTPUT_TOUR_FILE: "baseline_results/cvrp_lkh/Vrp-Set-X-n204/Vrp-Set-X-n204-lkh/0.lkh1.tour" ... done
* 1502: Cost = 0_2002562, Time = 7.95 sec. 
Writing OUTPUT_TOUR_FILE: "baseline_results/cvrp_lkh/Vrp-Set-X-n204/Vrp-Set-X-n204-lkh/0.lkh1.tour" ... done
* 1566: Cost = 0_2002557, Time = 8.26 sec. 
Writing OUTPUT_TOUR_FILE: "baseline_results/cvrp_lkh/Vrp-Set-X-n204/Vrp-Set-X-n204-lkh/0.lkh1.tour" ... done
* 1659: Cost = 0_2002413, Time = 8.73 sec. 
Writing OUTPUT_TOUR_FILE: "baseline_results/cvrp_lkh/Vrp-Set-X-n204/Vrp-Set-X-n204-lkh/0.lkh1.tour" ... done
* 1661: Cost = 0_2001567, Time = 8.75 sec. 
Writing OUTPUT_TOUR_FILE: "baseline_results/cvrp_lkh/Vrp-Set-X-n204/Vrp-Set-X-n204-lkh/0.lkh1.tour" ... done
* 2173: Cost = 0_2001470, Time = 11.40 sec. 
Writing OUTPUT_TOUR_FILE: "baseline_results/cvrp_lkh/Vrp-Set-X-n204/Vrp-Set-X-n204-lkh/0.lkh1.tour" ... done
* 2463: Cost = 0_2000657, Time = 13.05 sec. 
Writing OUTPUT_TOUR_FILE: "baseline_results/cvrp_lkh/Vrp-Set-X-n204/Vrp-Set-X-n204-lkh/0.lkh1.tour" ... done
* 4800: Cost = 0_2000574, Time = 27.57 sec. 
Writing OUTPUT_TOUR_FILE: "baseline_results/cvrp_lkh/Vrp-Set-X-n204/Vrp-Set-X-n204-lkh/0.lkh1.tour" ... done
* 4838: Cost = 0_1998575, Time = 27.81 sec. 
Writing OUTPUT_TOUR_FILE: "baseline_results/cvrp_lkh/Vrp-Set-X-n204/Vrp-Set-X-n204-lkh/0.lkh1.tour" ... done
* 5714: Cost = 0_1997481, Time = 33.04 sec. 
Writing OUTPUT_TOUR_FILE: "baseline_results/cvrp_lkh/Vrp-Set-X-n204/Vrp-Set-X-n204-lkh/0.lkh1.tour" ... done
* 8429: Cost = 0_1997063, Time = 49.06 sec. 
Writing OUTPUT_TOUR_FILE: "baseline_results/cvrp_lkh/Vrp-Set-X-n204/Vrp-Set-X-n204-lkh/0.lkh1.tour" ... done
* 8806: Cost = 0_1996870, Time = 51.93 sec. 
Writing OUTPUT_TOUR_FILE: "baseline_results/cvrp_lkh/Vrp-Set-X-n204/Vrp-Set-X-n204-lkh/0.lkh1.tour" ... done
* 9003: Cost = 0_1996793, Time = 53.46 sec. 
Writing OUTPUT_TOUR_FILE: "baseline_results/cvrp_lkh/Vrp-Set-X-n204/Vrp-Set-X-n204-lkh/0.lkh1.tour" ... done
* 9078: Cost = 0_1996426, Time = 54.00 sec. 
Writing OUTPUT_TOUR_FILE: "baseline_results/cvrp_lkh/Vrp-Set-X-n204/Vrp-Set-X-n204-lkh/0.lkh1.tour" ... done
* 9184: Cost = 0_1996038, Time = 54.93 sec. 
Writing OUTPUT_TOUR_FILE: "baseline_results/cvrp_lkh/Vrp-Set-X-n204/Vrp-Set-X-n204-lkh/0.lkh1.tour" ... done
* 9317: Cost = 0_1995733, Time = 55.93 sec. 
Writing OUTPUT_TOUR_FILE: "baseline_results/cvrp_lkh/Vrp-Set-X-n204/Vrp-Set-X-n204-lkh/0.lkh1.tour" ... done
* 9793: Cost = 0_1994606, Time = 58.84 sec. 
Writing OUTPUT_TOUR_FILE: "baseline_results/cvrp_lkh/Vrp-Set-X-n204/Vrp-Set-X-n204-lkh/0.lkh1.tour" ... done
* 9920: Cost = 0_1992394, Time = 59.73 sec. 
Writing OUTPUT_TOUR_FILE: "baseline_results/cvrp_lkh/Vrp-Set-X-n204/Vrp-Set-X-n204-lkh/0.lkh1.tour" ... done
* 9937: Cost = 0_1992086, Time = 59.80 sec. 
Writing OUTPUT_TOUR_FILE: "baseline_results/cvrp_lkh/Vrp-Set-X-n204/Vrp-Set-X-n204-lkh/0.lkh1.tour" ... done
Population:
  1: 0_1992086
Run 1: Cost = 0_1992086, Time = 60.14 sec. 

Successes/Runs = 0/1 
Cost.min = 1992086, Cost.avg = 1992086.00, Cost.max = 1992086
Gap.min = 0.0000%, Gap.avg = 0.0000%, Gap.max = 0.0000%
Penalty.min = 0, Penalty.avg = 0.00, Penalty.max = 0
Trials.min = 10000, Trials.avg = 10000.0, Trials.max = 10000
Time.min = 60.14 sec., Time.avg = 60.14 sec., Time.max = 60.14 sec.
Time.total = 60.21 sec.
  Size.min = 5, Size.max = 12, Penalty = 0
  Cost.min = 49279, Cost.max = 162809, Cost.sum = 1992086
Best CVRP solution:
  Cost = 0_1992086

