experiment/data/lkh-res/Vrp-Set-X-n204/Vrp-Set-X-n204-lkh/0.lkh1.tour
NAME : 0.1992086.tour
COMMENT : Length = 1992086
COMMENT : Found by LKH-3 [Keld Helsgaun] Tue Apr  9 04:09:23 2024
TYPE : TOUR
DIMENSION : 222
TOUR_SECTION
1
138
198
140
90
94
176
131
162
169
116
192
213
152
105
191
115
133
196
128
134
173
189
194
206
184
154
80
78
97
208
157
111
67
159
147
104
185
164
181
166
58
56
205
91
171
107
124
156
17
165
170
132
168
178
215
20
81
47
21
83
36
38
61
65
89
209
59
85
8
68
96
30
93
86
74
22
43
218
33
79
101
16
35
54
102
37
49
120
200
210
27
161
114
123
158
106
163
72
180
100
121
187
221
2
9
167
135
69
122
150
193
127
77
211
87
7
29
25
24
5
60
32
42
70
62
212
75
4
88
14
26
92
55
95
41
57
12
52
216
113
130
48
172
108
179
109
197
98
139
118
126
214
125
71
63
153
19
183
201
13
136
199
182
220
18
40
34
44
51
46
39
190
64
217
174
66
144
129
73
31
175
53
28
50
76
84
207
195
6
177
110
3
160
99
119
23
146
222
155
10
188
112
204
145
117
149
137
203
151
219
142
141
186
148
15
103
11
45
82
202
143
-1
EOF
